(declare-fun r0 () Real)
(declare-fun r2 () Real)
(declare-fun r5 () Real)
(declare-fun r8 () Real)
(declare-fun ufbr3 (Bool Bool Bool) Real)
(declare-fun ufrr5 (Real Real Real Real Real) Real)
(declare-fun r9 () Real)
(assert (= r2 (ufrr5 0.0 0.0 (+ 0.2 r2) 0.0 0.2)))
(assert (= (= 0.0 (+ 0.2 r2 1 1 1.0 r8)) (= 1.0 (+ (ufrr5 0.0 0.0 r5 0.0 0.2) (- r9 (ufbr3 false true (= r0 (+ 1 1 1.0 r8))))))))
(assert (= r0 (* r8 r5)))
(check-sat)
